# Cost: 291

# Tail Head Net
240 180 1
300 240 1
360 300 1
420 360 1
480 420 1
540 480 1
600 540 1
660 600 1
720 660 1
780 720 1
840 780 1
900 840 1
960 900 1
1020 960 1
1080 1020 1
1140 1080 1
1200 1140 1
1260 1200 1
1320 1260 1
1380 1320 1
1440 1380 1
1500 1440 1
1560 1500 1
1620 1560 1
1680 1620 1
1740 1680 1
1800 1740 1
1860 1800 1
1920 1860 1
1980 1920 1
2040 1980 1
2100 2040 1
2160 2100 1
2220 2160 1
2269 2270 1
2270 2271 1
2271 2272 1
2272 2273 1
2273 2274 1
2274 2275 1
2275 2276 1
2276 2277 1
2277 2278 1
2278 2279 1
2279 2280 1
2280 2220 1
3572 3573 1
3573 3574 1
3574 7174 1
5865 5866 1
5866 5867 1
5867 5868 1
5868 5869 1
5869 2269 1
5920 5921 1
5921 5922 1
5922 5923 1
5923 5924 1
5924 5925 1
5925 5865 1
5980 5920 1
6039 6040 1
6040 5980 1
6099 6039 1
6159 6099 1
6219 6159 1
6277 6278 1
6278 6279 1
6279 6219 1
6337 6277 1
6397 6337 1
6457 6397 1
6517 6457 1
6577 6517 1
6637 6577 1
6697 6637 1
6757 6697 1
6817 6757 1
6877 6817 1
6937 6877 1
6997 6937 1
7057 6997 1
7117 7057 1
7174 7175 1
7175 7176 1
7176 7177 1
7177 7117 1
2521 2461 2
2581 2521 2
2641 2581 2
2701 2641 2
2761 2701 2
2761 2762 2
2762 2763 2
2763 2823 2
2823 2883 2
2883 2884 2
2884 2885 2
2885 2886 2
2886 2946 2
2946 3006 2
3006 3007 2
3007 3067 2
3067 3068 2
3068 3069 2
3069 3129 2
3129 3130 2
3130 3131 2
3131 3132 2
3132 3133 2
3133 3134 2
3134 3135 2
3135 3136 2
3136 3137 2
3137 3138 2
3138 3139 2
3139 3140 2
3140 3141 2
3141 3142 2
3142 3143 2
3143 3144 2
3144 3145 2
3145 3146 2
3146 3147 2
3147 3148 2
3148 3149 2
3149 3150 2
3150 3151 2
3151 3152 2
3152 3153 2
3153 3154 2
3154 3155 2
3155 3156 2
3156 3157 2
3157 3158 2
3158 3159 2
3159 3160 2
3160 3161 2
3161 3162 2
3162 3163 2
3163 3223 2
3223 3224 2
3224 3225 2
3225 3226 2
3226 3286 2
3286 3346 2
3346 3406 2
3406 3407 2
3407 3467 2
3467 3468 2
3468 3469 2
3469 3470 2
3470 3471 2
3471 3531 2
3531 3532 2
3532 3533 2
3533 3534 2
3534 3535 2
3535 3595 2
3595 3596 2
3596 3597 2
53 54 3
54 55 3
55 56 3
56 57 3
57 58 3
58 59 3
59 60 3
107 108 3
108 109 3
109 110 3
110 111 3
111 112 3
112 113 3
113 53 3
167 107 3
226 227 3
227 167 3
283 284 3
284 285 3
285 286 3
286 226 3
342 343 3
343 283 3
395 396 3
396 397 3
397 398 3
398 399 3
399 400 3
400 401 3
401 402 3
402 342 3
452 453 3
453 454 3
454 455 3
455 395 3
511 512 3
512 452 3
564 565 3
565 566 3
566 567 3
567 568 3
568 569 3
569 570 3
570 571 3
571 511 3
618 619 3
619 620 3
620 621 3
621 622 3
622 623 3
623 624 3
624 564 3
678 618 3
738 678 3
798 738 3
856 857 3
857 858 3
858 798 3
912 913 3
913 914 3
914 915 3
915 916 3
916 856 3
971 972 3
972 912 3
1029 1030 3
1030 1031 3
1031 971 3
1089 1029 3
1143 1144 3
1144 1145 3
1145 1146 3
1146 1147 3
1147 1148 3
1148 1149 3
1149 1089 3
1201 1202 3
1202 1203 3
1203 1143 3
1261 1201 3
1321 1261 3
1321 1381 3
1381 1441 3
1441 1501 3
1501 1561 3
1561 1621 3
1621 1681 3
1681 1741 3
1741 1801 3
1801 1861 3
1861 1921 3
3362 3361 4
3363 3362 4
3364 3363 4
3365 3364 4
3366 3365 4
3367 3366 4
3368 3367 4
3369 3368 4
3429 3369 4
3489 3429 4
3489 3490 4
3490 3491 4
3491 3492 4
3492 3493 4
3493 3494 4
3494 3495 4
3495 3496 4
3496 3497 4
3497 3498 4
3498 3499 4
3499 3500 4
3500 3501 4
3501 3502 4
3502 3503 4
3503 3504 4
3504 3505 4
3505 3506 4
3506 3507 4
3507 3508 4
3508 3509 4
3509 3510 4
3510 3511 4
3511 3512 4
3512 3513 4
3513 3514 4
3514 3515 4
3515 3575 4
3549 3489 4
3575 3576 4
